 vasp.6.4.1 05Apr23 (build Oct  5 2024 14:14:43) complex
 executed on             LinuxGNU date 2025.04.27  23:53:09

 INCAR:
   ENCUT = 460.000000
   SIGMA = 0.050000
   EDIFF = 1.00e-06
   ALGO = Normal
   GGA = PE
   ISMEAR = 0
   ISPIN = 2
   ISTART = 2
   LORBIT = 11
   NELM = 100
   NCORE = 2
   LCHARG = .TRUE.
   LDAU = .TRUE.
   LPLANE = .TRUE.
   LVHAR = .TRUE.
   LVTOT = .TRUE.
   LWAVE = .TRUE.
   LREAL = .FALSE.
   LDAUL = 2 -1
   LDAUU = 5.000 0.000
   LDAUJ = 0.000 0.000
   MAGMOM = 12*2.2000 18*0.0000

 POTCAR:    PAW_PBE Fe 06Sep2000
 POTCAR:    PAW_PBE O 08Apr2002
 POTCAR:    PAW_PBE Fe 06Sep2000
   VRHFIN =Fe:  d7 s1

   TITEL  = PAW_PBE Fe 06Sep2000
   POMASS =   55.847; ZVAL   =    8.000    mass and valenz
   ENMAX  =  267.882; ENMIN  =  200.911 eV

 POTCAR:    PAW_PBE O 08Apr2002
   VRHFIN =O: s2p4

   TITEL  = PAW_PBE O 08Apr2002
   POMASS =   16.000; ZVAL   =    6.000    mass and valenz
   ENMAX  =  400.000; ENMIN  =  300.000 eV

  PAW_PBE Fe 06Sep2000                  :
  PAW_PBE O 08Apr2002                   :

 POSCAR: Fe O
  positions in cartesian coordinates
  velocities in cartesian coordinates
 exchange correlation table for  LEXCH =        8
   RHO(1)=    0.500       N(1)  =     2000
   RHO(2)=  100.500       N(2)  =     4000

 ion  position               nearest neighbor table
   1  0.000  0.000  0.438-  30 1.99  24 1.99  18 1.99  19 2.14  13 2.14  25 2.14   7 2.81  12 2.99
                            12 2.99  12 2.99
   2  0.667  0.333  0.577-  28 1.99  22 1.99  16 1.99  20 2.10  14 2.10  26 2.10   8 2.86  10 2.99
                            10 2.99  10 2.99
   3  0.333  0.667  0.322-  17 1.81  23 1.81  29 1.81   7 3.12   7 3.12   7 3.12
   4  0.000  0.000  0.647-  15 1.93  21 1.93  27 1.93  28 2.10  22 2.10  16 2.10  10 2.81   9 2.97
                             9 2.97   9 2.97  11 3.12  11 3.12  11 3.12
   5  0.667  0.333  0.363-  23 2.03  29 2.03  17 2.03  13 2.05  19 2.05  25 2.05   7 2.97   7 2.97
                             7 2.97
   6  0.333  0.667  0.509-  26 1.98  20 1.98  14 1.98  30 2.13  24 2.13  18 2.13  12 2.86   8 3.00
                             8 3.00   8 3.00
   7  0.000  0.000  0.353-  23 1.93  29 1.93  17 1.93  19 2.10  13 2.10  25 2.10   1 2.81   5 2.97
                             5 2.97   5 2.97   3 3.12   3 3.12   3 3.12
   8  0.667  0.333  0.491-  18 1.98  30 1.98  24 1.98  20 2.13  14 2.13  26 2.13   2 2.86   6 3.00
                             6 3.00   6 3.00
   9  0.333  0.667  0.637-  15 2.03  21 2.03  27 2.03  22 2.05  28 2.05  16 2.05   4 2.97   4 2.97
                             4 2.97
  10  0.000  0.000  0.562-  20 1.99  14 1.99  26 1.99  28 2.14  22 2.14  16 2.14   4 2.81   2 2.99
                             2 2.99   2 2.99
  11  0.667  0.333  0.678-  27 1.81  15 1.81  21 1.81   4 3.12   4 3.12   4 3.12
  12  0.333  0.667  0.423-  19 1.99  13 1.99  25 1.99  30 2.10  24 2.10  18 2.10   6 2.86   1 2.99
                             1 2.99   1 2.99
  13  0.688  0.997  0.395-  12 1.99   5 2.05   7 2.10   1 2.14
  14  0.361  0.332  0.535-   6 1.98  10 1.99   2 2.10   8 2.13
  15  0.027  0.680  0.674-  11 1.81   4 1.93   9 2.03
  16  0.690  0.688  0.605-   2 1.99   9 2.05   4 2.10  10 2.14
  17  0.347  0.027  0.326-   3 1.81   7 1.93   5 2.03
  18  0.029  0.361  0.465-   8 1.98   1 1.99  12 2.10   6 2.13
  19  0.003  0.690  0.395-  12 1.99   5 2.05   7 2.10   1 2.14
  20  0.668  0.029  0.535-   6 1.98  10 1.99   2 2.10   8 2.13
  21  0.320  0.347  0.674-  11 1.81   4 1.93   9 2.03
  22  0.312  0.003  0.605-   2 1.99   9 2.05   4 2.10  10 2.14
  23  0.973  0.320  0.326-   3 1.81   7 1.93   5 2.03
  24  0.639  0.668  0.465-   8 1.98   1 1.99  12 2.10   6 2.13
  25  0.310  0.312  0.395-  12 1.99   5 2.05   7 2.10   1 2.14
  26  0.971  0.639  0.535-   6 1.98  10 1.99   2 2.10   8 2.13
  27  0.653  0.973  0.674-  11 1.81   4 1.93   9 2.03
  28  0.997  0.310  0.605-   2 1.99   9 2.05   4 2.10  10 2.14
  29  0.680  0.653  0.326-   3 1.81   7 1.93   5 2.03
  30  0.332  0.971  0.465-   8 1.98   1 1.99  12 2.10   6 2.13

  LATTYP: Found a hexagonal cell.
 ALAT       =     5.1036239698
 C/A-ratio  =     6.5183894723

  Lattice vectors:

 A1 = (   5.1036239698,   0.0000000000,   0.0000000000)
 A2 = (  -2.5518119849,   4.4198680092,   0.0000000000)
 A3 = (   0.0000000000,   0.0000000000,  33.2674087554)

Analysis of symmetry for initial positions (statically):
 Subroutine PRICEL returns:
 Original cell was already a primitive cell.

 Routine SETGRP: Setting up the symmetry group for a
 hexagonal supercell.

 Subroutine GETGRP returns: Found  6 space group operations
 (whereof  6 operations were pure point group operations)
 out of a pool of 24 trial point group operations.

The static configuration has the point symmetry S_6 .

Analysis of symmetry for dynamics (positions and initial velocities):
 Subroutine PRICEL returns:
 Original cell was already a primitive cell.

[...]

The dynamic configuration has the point symmetry S_6 .

Analysis of structural, dynamic, and magnetic symmetry:
 Subroutine PRICEL returns:
 Original cell was already a primitive cell.

 Routine SETGRP: Setting up the symmetry group for a
 hexagonal supercell.

 Subroutine GETGRP returns: Found  6 space group operations
 (whereof  6 operations were pure point group operations)
 out of a pool of 24 trial point group operations.

The overall configuration has the point symmetry S_6 .

 Subroutine INISYM returns: Found  6 space group operations
 (whereof  6 operations are pure point group operations),
 and found     1 'primitive' translations

                                     Primitive cell

  volume of cell :     750.4244

  direct lattice vectors                    reciprocal lattice vectors
     5.103623970  0.000000000  0.000000000     0.195939200  0.113125550 -0.000000000
    -2.551811985  4.419868009  0.000000000     0.000000000  0.226251100  0.000000000
     0.000000000  0.000000000 33.267408755     0.000000000 -0.000000000  0.030059450

  length of vectors
     5.103623970  5.103623970 33.267408755     0.226251100  0.226251100  0.030059450

  position of ions in fractional coordinates (direct lattice)
     0.000000000  0.000000000  0.437836138
     0.666666670  0.333333330  0.577144994
     0.333333330  0.666666670  0.322313489
     0.000000000  0.000000000  0.646667835
     0.666666670  0.333333330  0.363326141
     0.333333330  0.666666670  0.508697612
     0.000000000  0.000000000  0.353332165
     0.666666670  0.333333330  0.491302388
     0.333333330  0.666666670  0.636673859
     0.000000000  0.000000000  0.562163862
     0.666666670  0.333333330  0.677686511
     0.333333330  0.666666670  0.422855006
     0.687761715  0.997334516  0.394509407
     0.360697525  0.331807348  0.534872314
     0.027075865  0.680171438  0.674133355
     0.690427198  0.687761715  0.605490593
     0.346904437  0.027075866  0.325866645
     0.028890166  0.360697524  0.465127686
     0.002665484  0.690427199  0.394509407
     0.668192652  0.028890167  0.534872314
     0.319828562  0.346904437  0.674133355
     0.312238285  0.002665484  0.605490593
     0.972924135  0.319828562  0.325866645
     0.639302475  0.668192652  0.465127686
     0.309572802  0.312238285  0.394509407
     0.971109834  0.639302476  0.534872314
     0.653095563  0.972924134  0.674133355
     0.997334516  0.309572801  0.605490593
     0.680171438  0.653095563  0.325866645
     0.331807348  0.971109833  0.465127686

  ion indices of the primitive-cell ions
   primitive index   ion index
                 1           1
                 2           2
                 3           3
                 4           4
                 5           5
                 6           6
                 7           7
                 8           8
                 9           9
                10          10
                11          11
                12          12
                13          13
                14          14
                15          15
                16          16
                17          17
                18          18
                19          19
                20          20
                21          21
                22          22
                23          23
                24          24
                25          25
                26          26
                27          27
                28          28
                29          29
                30          30

 KPOINTS: KPOINTS created by Atomic Simulation Env

Automatic generation of k-mesh.
 Grid dimensions read from file:
 generate k-points for:    3    3    1

 Generating k-lattice:

  Cartesian coordinates                     Fractional coordinates (reciprocal lattice)
     0.065313067  0.037708517 -0.000000000     0.333333333  0.000000000  0.000000000
     0.000000000  0.075417033  0.000000000     0.000000000  0.333333333  0.000000000
     0.000000000 -0.000000000  0.030059450     0.000000000  0.000000000  1.000000000

  Length of vectors
     0.075417033  0.075417033  0.030059450

  Shift w.r.t. Gamma in fractional coordinates (k-lattice)
     0.000000000  0.000000000  0.000000000

 Subroutine IBZKPT returns following result:

 Found      3 irreducible k-points:

 Following reciprocal coordinates:
            Coordinates               Weight
  0.000000  0.000000  0.000000      1.000000
  0.333333  0.000000  0.000000      6.000000
  0.333333  0.333333  0.000000      2.000000

 Following cartesian coordinates:
            Coordinates               Weight
  0.000000  0.000000  0.000000      1.000000
  0.065313  0.037709  0.000000      6.000000
  0.065313  0.113126  0.000000      2.000000

 SYSTEM =  unknown system
 POSCAR =  Fe O

 Startparameter for this run:
   NWRITE =      2    write-flag & timer
   PREC   = normal    normal or accurate (medium, high low for compatibility)
   ISTART =      2    job   : 0-new  1-cont  2-samecut
   ICHARG =      0    charge: 1-file 2-atom 10-const
   ISPIN  =      2    spin polarized calculation?
   LNONCOLLINEAR =      F non collinear calculations
   LSORBIT =      F    spin-orbit coupling
   INIWAV =      1    electr: 0-lowe 1-rand  2-diag
   LASPH  =      F    aspherical Exc in radial PAW
 Electronic Relaxation 1
   ENCUT  =  460.0 eV  33.81 Ry    5.81 a.u.   8.93  8.93 58.18*2*pi/ulx,y,z
   ENINI  =  460.0     initial cutoff
   ENAUG  =  605.4 eV  augmentation charge cutoff
   NELM   =    100;   NELMIN=  2; NELMDL=  0     # of ELM steps
   EDIFF  = 0.1E-05   stopping-criterion for ELM
   LREAL  =      F    real-space projection
   NLSPLINE    = F    spline interpolate recip. space projectors
   LCOMPAT=      F    compatible to vasp.4.4
   GGA_COMPAT  = T    GGA compatible to vasp.4.4-vasp.4.6
   LMAXPAW     = -100 max onsite density
   LMAXMIX     =    2 max onsite mixed and CHGCAR
   VOSKOWN=      0    Vosko Wilk Nusair interpolation
   ROPT   =    0.00000   0.00000
 Ionic relaxation
   EDIFFG = 0.1E-04   stopping-criterion for IOM
   NSW    =      0    number of steps for IOM
   NBLOCK =      1;   KBLOCK =      1    inner block; outer block
   IBRION =     -1    ionic relax: 0-MD 1-quasi-New 2-CG
   NFREE  =      0    steps in history (QN), initial steepest desc. (CG)
[...]
     13     -19.1921      1.00000
     14     -19.1921      1.00000
     15     -19.1557      1.00000
     16     -19.1467      1.00000
     17     -19.1424      1.00000
     18     -19.1424      1.00000
     19     -10.2438      1.00000
     20     -10.1999      1.00000
     21     -10.1999      1.00000
     22     -10.0591      1.00000
     23     -10.0591      1.00000
     24      -9.9551      1.00000
     25      -9.9252      1.00000
     26      -9.9252      1.00000
     27      -9.8366      1.00000
     28      -9.8163      1.00000
     29      -9.8043      1.00000
     30      -9.8043      1.00000
     31      -9.6850      1.00000
     32      -9.6850      1.00000
     33      -9.6669      1.00000
     34      -9.6078      1.00000
     35      -9.5845      1.00000
     36      -9.5845      1.00000
     37      -9.4259      1.00000
     38      -9.4259      1.00000
     39      -9.3779      1.00000
     40      -9.3255      1.00000
     41      -9.3255      1.00000
     42      -9.2265      1.00000
     43      -9.1827      1.00000
     44      -9.1827      1.00000
     45      -9.1361      1.00000
     46      -9.0804      1.00000
     47      -8.9829      1.00000
     48      -8.9829      1.00000
     49      -8.9047      1.00000
     50      -8.9047      1.00000
     51      -8.8932      1.00000
     52      -8.8310      1.00000
     53      -8.8310      1.00000
     54      -8.8272      1.00000
     55      -8.7796      1.00000
     56      -8.7796      1.00000
     57      -8.7237      1.00000
     58      -8.6753      1.00000
     59      -8.6753      1.00000
     60      -8.6069      1.00000
[...]
    122      -2.0436      1.00000
    123      -0.0763      0.00000
    124      -0.0763      0.00000
    125       0.2888      0.00000
    126       0.2888      0.00000
    127       0.3284      0.00000
    128       0.3290      0.00000
    129       0.9107      0.00000
    130       0.9107      0.00000
    131       0.9269      0.00000
    132       0.9275      0.00000
    133       4.6291      0.00000
    134       4.6291      0.00000
    135       5.5614      0.00000
    136       5.5698      0.00000
 Fermi energy:        -1.8128188352

 spin component 2

[...]

 k-point     3 :       0.3333    0.3333    0.0000
  band No.  band energies     occupation
      1     -19.4723      1.00000
      2     -19.4723      1.00000
      3     -19.4342      1.00000
      4     -19.4323      1.00000
      5     -19.3319      1.00000
      6     -19.3319      1.00000
      7     -19.1257      1.00000
      8     -19.1257      1.00000
      9     -18.9055      1.00000
     10     -18.8271      1.00000
     11     -18.6245      1.00000
     12     -18.6245      1.00000
     13     -18.5381      1.00000
     14     -18.4632      1.00000
     15     -18.4632      1.00000
     16     -18.3988      1.00000
     17     -18.3755      1.00000
     18     -18.3755      1.00000
     19      -9.4211      1.00000
     20      -9.4209      1.00000
     21      -9.4020      1.00000
     22      -9.4020      1.00000
     23      -9.2172      1.00000
     24      -9.2172      1.00000
     25      -8.9587      1.00000
     26      -8.9587      1.00000
     27      -8.9544      1.00000
     28      -8.9542      1.00000
     29      -6.8565      1.00000
     30      -6.8196      1.00000
     31      -6.8196      1.00000
     32      -6.7202      1.00000
     33      -6.7202      1.00000
     34      -6.4473      1.00000
     35      -6.3645      1.00000
     36      -6.3645      1.00000
     37      -6.2615      1.00000
     38      -6.2271      1.00000
     39      -6.2271      1.00000
     40      -6.2029      1.00000
     41      -5.7915      1.00000
     42      -5.7915      1.00000
     43      -5.6891      1.00000
     44      -5.5267      1.00000
     45      -5.5267      1.00000
     46      -5.4067      1.00000
     47      -5.2093      1.00000
     48      -5.2093      1.00000
     49      -5.1862      1.00000
     50      -4.9851      1.00000
     51      -4.9851      1.00000
     52      -4.8372      1.00000
     53      -4.8372      1.00000
     54      -4.8155      1.00000
     55      -4.7397      1.00000
     56      -4.7397      1.00000
     57      -4.7015      1.00000
     58      -4.5406      1.00000
     59      -4.5406      1.00000
     60      -4.4395      1.00000
[...]
    122       1.5395      0.00000
    123       1.5395      0.00000
    124       1.6254      0.00000
    125       1.7540      0.00000
    126       1.7540      0.00000
    127       1.7679      0.00000
    128       1.7804      0.00000
    129       1.7804      0.00000
    130       1.9589      0.00000
    131       1.9966      0.00000
    132       1.9966      0.00000
    133       3.8578      0.00000
    134       3.8578      0.00000
    135       5.5963      0.00000
    136       5.5992      0.00000

 soft charge-density along one line, spin component           1
         0         1         2         3         4         5         6         7         8         9
 total charge-density along one line

 soft charge-density along one line, spin component           2
         0         1         2         3         4         5         6         7         8         9
 total charge-density along one line

------------------------ aborting loop because EDIFF is reached ----------------------------------------

 total charge

# of ion       s       p       d       tot
    1        0.367   0.509   5.761   6.637
    2        0.376   0.535   5.788   6.699
    3        0.441   0.598   5.965   7.003
    4        0.397   0.585   5.875   6.856
    5        0.367   0.522   5.774   6.664
    6        0.371   0.519   5.767   6.657
    7        0.397   0.585   5.875   6.856
    8        0.371   0.519   5.767   6.657
    9        0.367   0.522   5.774   6.664
   10        0.367   0.509   5.761   6.637
   11        0.441   0.598   5.965   7.003
   12        0.376   0.535   5.788   6.699
   13        1.566   3.467   0.000   5.033
   14        1.565   3.480   0.000   5.045
   15        1.576   3.469   0.000   5.045
   16        1.566   3.467   0.000   5.033
   17        1.576   3.469   0.000   5.045
   18        1.565   3.480   0.000   5.045
   19        1.566   3.467   0.000   5.033
   20        1.565   3.480   0.000   5.045
   21        1.576   3.469   0.000   5.045
   22        1.566   3.467   0.000   5.033
   23        1.576   3.469   0.000   5.045
   24        1.565   3.480   0.000   5.045
   25        1.566   3.467   0.000   5.033
   26        1.565   3.480   0.000   5.045
   27        1.576   3.469   0.000   5.045
   28        1.566   3.467   0.000   5.033
   29        1.576   3.469   0.000   5.045
   30        1.565   3.480   0.000   5.045
tot         32.878  69.033  69.860 171.772

 magnetization (x)

[...]

  FORCE on cell =-STRESS in cart. coord.  units (eV):
  Direction    XX          YY          ZZ          XY          YZ          ZX
  Alpha Z   395.14744   395.14744   395.14744
  Ewald  157679.20285157679.20287************    -0.00002    -0.00000     0.00000
  Hartree161247.56169161247.56169************    -0.00000     0.00000    -0.00000
  E(xc)   -1029.54580 -1029.54597 -1029.25748    -0.00018     0.00001     0.00000
  Local  ************************322895.82982    -0.00448    -0.00061    -0.00035
  n-local  -648.40878  -647.73009  -662.88915    -0.49907     0.23839    -0.40939
  augment   622.98518   622.98593   618.45435    -0.00035     0.00001     0.00003
  Kinetic  3158.86774  3157.18418  3189.20759     0.81103    -0.08096     0.68820
  Fock        0.00000     0.00000     0.00000     0.00000     0.00000     0.00000
  Total       4.11095     4.11095    -3.95389    -0.00000     0.00000    -0.00000
  in kB       8.77700     8.77700    -8.44167    -0.00000     0.00000    -0.00000

 VOLUME and BASIS-vectors are now :
  energy-cutoff  :      460.00
  volume of cell :      750.42
      direct lattice vectors                 reciprocal lattice vectors
     5.103623970  0.000000000  0.000000000     0.195939200  0.113125550 -0.000000000
    -2.551811985  4.419868009  0.000000000     0.000000000  0.226251100  0.000000000
     0.000000000  0.000000000 33.267408755     0.000000000 -0.000000000  0.030059450

  length of vectors
     5.103623970  5.103623970 33.267408755     0.226251100  0.226251100  0.030059450

 FORCES acting on ions
    electron-ion (+dipol)            ewald-force                    non-local-force                 convergence-correction
   -.246E-04 -.433E-04 0.107E+04   -.451E-05 0.274E-05 -.107E+04   -.196E-17 0.431E-17 -.164E+01   -.622E-09 -.733E-09 0.162E-03
   -.105E-04 -.270E-04 -.143E+04   -.770E-05 0.478E-05 0.144E+04   0.227E-17 0.281E-18 -.107E+01   0.594E-09 0.106E-08 -.241E-03
   -.473E-04 -.524E-04 0.327E+04   0.185E-04 -.983E-05 -.327E+04   -.217E-17 0.153E-17 -.296E+01   0.949E-08 0.143E-07 0.353E-04
   0.175E-04 0.257E-04 -.273E+04   -.309E-05 0.163E-05 0.273E+04   0.167E-17 0.685E-18 -.139E+01   0.367E-09 0.721E-09 -.199E-03
   -.179E-04 -.462E-04 0.245E+04   -.860E-05 0.474E-05 -.245E+04   -.195E-17 0.570E-18 0.755E+00   0.159E-09 0.310E-09 0.248E-03
   -.711E-05 -.104E-05 -.218E+03   0.135E-04 -.779E-05 0.219E+03   0.687E-17 -.422E-17 -.127E+01   -.434E-10 -.341E-10 -.336E-04
   -.175E-04 -.257E-04 0.273E+04   0.309E-05 -.163E-05 -.273E+04   -.264E-17 -.109E-18 0.139E+01   -.367E-09 -.721E-09 0.199E-03
   0.711E-05 0.104E-05 0.218E+03   -.135E-04 0.779E-05 -.219E+03   -.446E-17 -.180E-18 0.127E+01   0.434E-10 0.341E-10 0.336E-04
   0.179E-04 0.462E-04 -.245E+04   0.860E-05 -.474E-05 0.245E+04   0.340E-18 0.605E-19 -.755E+00   -.159E-09 -.310E-09 -.248E-03
   0.246E-04 0.433E-04 -.107E+04   0.451E-05 -.274E-05 0.107E+04   -.144E-18 -.241E-17 0.164E+01   0.622E-09 0.733E-09 -.162E-03
   0.473E-04 0.524E-04 -.327E+04   -.185E-04 0.983E-05 0.327E+04   0.232E-17 0.555E-17 0.296E+01   -.949E-08 -.143E-07 -.353E-04
   0.105E-04 0.270E-04 0.143E+04   0.770E-05 -.478E-05 -.144E+04   0.814E-18 0.717E-18 0.107E+01   -.594E-09 -.106E-08 0.241E-03
   0.448E+02 -.194E+02 0.142E+04   -.465E+02 0.212E+02 -.142E+04   0.172E+01 -.183E+01 -.625E+00   0.329E-04 0.868E-05 0.147E-03
   0.453E+02 0.109E+01 -.472E+03   -.458E+02 -.134E+01 0.471E+03   0.460E+00 0.236E+00 0.379E+00   0.286E-05 0.471E-04 -.128E-03
   -.362E+02 -.244E+02 -.248E+04   0.446E+02 0.305E+02 0.249E+04   -.839E+01 -.618E+01 -.122E+02   -.385E-04 0.585E-04 -.199E-04
   0.392E+02 0.291E+02 -.142E+04   -.416E+02 -.296E+02 0.142E+04   0.244E+01 0.580E+00 0.625E+00   0.896E-05 0.329E-04 -.147E-03
   0.298E+01 -.436E+02 0.248E+04   -.414E+01 0.539E+02 -.249E+04   0.116E+01 -.104E+02 0.122E+02   -.699E-04 -.415E-05 0.199E-04
   0.217E+02 0.398E+02 0.472E+03   -.217E+02 -.403E+02 -.471E+03   0.257E-01 0.516E+00 -.379E+00   -.394E-04 0.260E-04 0.128E-03
   -.561E+01 0.485E+02 0.142E+04   0.488E+01 -.508E+02 -.142E+04   0.719E+00 0.241E+01 -.625E+00   -.240E-04 0.242E-04 0.147E-03
   -.236E+02 0.387E+02 -.472E+03   0.240E+02 -.390E+02 0.471E+03   -.434E+00 0.280E+00 0.379E+00   -.423E-04 -.211E-04 -.128E-03
   0.392E+02 -.192E+02 -.248E+04   -.487E+02 0.234E+02 0.249E+04   0.955E+01 -.418E+01 -.122E+02   -.314E-04 -.626E-04 -.199E-04
   -.448E+02 0.194E+02 -.142E+04   0.465E+02 -.212E+02 0.142E+04   -.172E+01 0.183E+01 0.625E+00   -.329E-04 -.868E-05 -.147E-03
   0.362E+02 0.244E+02 0.248E+04   -.446E+02 -.305E+02 -.249E+04   0.839E+01 0.618E+01 0.122E+02   0.385E-04 -.585E-04 0.199E-04
   -.453E+02 -.109E+01 0.472E+03   0.458E+02 0.134E+01 -.471E+03   -.460E+00 -.236E+00 -.379E+00   -.286E-05 -.471E-04 0.128E-03
   -.392E+02 -.291E+02 0.142E+04   0.416E+02 0.296E+02 -.142E+04   -.244E+01 -.580E+00 -.625E+00   -.896E-05 -.329E-04 0.147E-03
   -.217E+02 -.398E+02 -.472E+03   0.217E+02 0.403E+02 0.471E+03   -.257E-01 -.516E+00 0.379E+00   0.394E-04 -.260E-04 -.128E-03
   -.298E+01 0.436E+02 -.248E+04   0.414E+01 -.539E+02 0.249E+04   -.116E+01 0.104E+02 -.122E+02   0.699E-04 0.415E-05 -.199E-04
   0.561E+01 -.485E+02 -.142E+04   -.488E+01 0.508E+02 0.142E+04   -.719E+00 -.241E+01 0.625E+00   0.240E-04 -.242E-04 -.147E-03
   -.392E+02 0.192E+02 0.248E+04   0.487E+02 -.234E+02 -.249E+04   -.955E+01 0.418E+01 0.122E+02   0.314E-04 0.626E-04 0.199E-04
   0.236E+02 -.387E+02 0.472E+03   -.240E+02 0.390E+02 -.471E+03   0.434E+00 -.280E+00 -.379E+00   0.423E-04 0.211E-04 0.128E-03
   0.106E-08 -.541E-09 0.111E-08   -.746E-13 -.639E-13 -.119E-11   0.666E-15 -.161E-14 -.139E-14   0.164E-13 -.359E-14 -.607E-11

 POSITION                                       TOTAL-FORCE (eV/Angst)
      0.00000      0.00000     14.56567         0.000000     -0.000000     -0.030412
      2.55181      1.47329     19.20012         0.000000     -0.000000      0.020294
     -0.00000      2.94658     10.72253         0.000000     -0.000000      0.005939
      0.00000      0.00000     21.51296         0.000000     -0.000000     -0.019581
      2.55181      1.47329     12.08692         0.000000     -0.000000      0.041831
     -0.00000      2.94658     16.92305         0.000000     -0.000000      0.011745
      0.00000      0.00000     11.75445         0.000000     -0.000000      0.019581
      2.55181      1.47329     16.34436         0.000000     -0.000000     -0.011745
     -0.00000      2.94658     21.18049         0.000000     -0.000000     -0.041831
      0.00000      0.00000     18.70173         0.000000     -0.000000      0.030412
      2.55181      1.47329     22.54487         0.000000     -0.000000     -0.005939
     -0.00000      2.94658     14.06729         0.000000     -0.000000     -0.020294
      0.96507      4.40809     13.12431         0.033923     -0.006958      0.013959
      0.99415      1.46654     17.79382        -0.000395     -0.015202     -0.002235
     -1.59748      3.00627     22.42667        -0.022627     -0.004245     -0.031698
      1.76864      3.03982     20.14310         0.022987      0.025899     -0.013959
      1.70138      0.11967     10.84074        -0.007637     -0.021718      0.031698
     -0.77299      1.59424     15.47359         0.012968     -0.007943      0.002235
     -1.74824      3.05160     13.12431        -0.010936      0.032857      0.013959
      3.33648      0.12769     17.79382         0.013363      0.007259     -0.002235
      0.74705      1.53327     22.42667         0.014990     -0.017473     -0.031698
      1.58674      0.01178     20.14310        -0.033923      0.006958     -0.013959
      4.14930      1.41360     10.84074         0.022627      0.004245      0.031698
      1.55766      2.95332     15.47359         0.000395      0.015202      0.002235
      0.78317      1.38005     13.12431        -0.022987     -0.025899      0.013959
      3.32480      2.82563     17.79382        -0.012968      0.007943     -0.002235
      0.85043      4.30020     22.42667         0.007637      0.021718     -0.031698
      4.30005      1.36827     20.14310         0.010936     -0.032857     -0.013959
      1.80476      2.88660     10.84074        -0.014990      0.017473      0.031698
     -0.78467      4.29218     15.47359        -0.013363     -0.007259      0.002235
    total drift:                                0.000000     -0.000000      0.000000

  FREE ENERGIE OF THE ION-ELECTRON SYSTEM (eV)
  free  energy   TOTEN  =      -197.50656096 eV

  energy  without entropy=     -197.50656096  energy(sigma->0) =     -197.50656096

 writing wavefunctions

 total charge

[...]

 magnetization (x)

# of ion       s       p       d       tot
    1        0.026   0.037   4.311   4.374
    2        0.025   0.038   4.321   4.385
    3       -0.048  -0.050  -4.020  -4.118
    4        0.016   0.026   4.245   4.287
    5        0.021   0.026   4.296   4.343
    6        0.027   0.040   4.324   4.391
    7        0.016   0.026   4.245   4.287
    8        0.027   0.040   4.324   4.391
    9        0.021   0.026   4.296   4.343
   10        0.026   0.037   4.311   4.374
   11       -0.048  -0.050  -4.020  -4.118
   12        0.025   0.038   4.321   4.385
   13        0.019   0.292   0.000   0.311
   14        0.020   0.325   0.000   0.345
   15        0.006   0.025   0.000   0.031
   16        0.019   0.292   0.000   0.311
   17        0.006   0.025   0.000   0.031
   18        0.020   0.325   0.000   0.345
   19        0.019   0.292   0.000   0.311
   20        0.020   0.325   0.000   0.345
   21        0.006   0.025   0.000   0.031
   22        0.019   0.292   0.000   0.311
   23        0.006   0.025   0.000   0.031
   24        0.020   0.325   0.000   0.345
   25        0.019   0.292   0.000   0.311
   26        0.020   0.325   0.000   0.345
   27        0.006   0.025   0.000   0.031
   28        0.019   0.292   0.000   0.311
   29        0.006   0.025   0.000   0.031
   30        0.020   0.325   0.000   0.345
tot          0.403   4.091  34.954  39.449